language ESSENCE' 1.0
$ minion Nodes: 6
$ minion TotalTime: 0.000608
$ Savile Row TotalTime: 0.33
letting a_tuple1 be 0
letting b_tuple1 be 0
letting b_tuple2 be 3
letting c_tuple1 be 0
letting c_tuple2_SetOccurrence be [false, false;int(3..4)]
letting b_tuple3_SetOccurrence be [false, false;int(3..4)]
